1 31 2
-978 -921 -11 -550 -356 -412 -810 -492 -383 -913 -755 -600 -67 -342 -444 -38 -352 -255 -723 -36 -245 -529 -583 -474 -507 -886 -48 -322 -175 -524 0 
-12 -44 -961 -447 -588 -611 -113 -522 -610 -39 -306 -476 -988 -698 -462 -923 -576 -739 -298 -885 -684 -373 -388 -526 -462 -59 -917 -648 -925 -481 0 
874 976 1094 998 816 848 1032 951 857 1131 988 1072 1145 872 867 1031 752 1083 1026 838 1087 1012 803 1036 1119 913 835 842 901 1050 1 
14424 
